Input file: instance_12.lp
Input data:
num_squadre(3).
player(1, difensore, portiere).
player(2, centrocampista, attaccante).
player(3, centrocampista, portiere).
player(4, centrocampista, difensore).
player(5, centrocampista, attaccante).
player(6, portiere, attaccante).
player(7, centrocampista, difensore).
player(8, centrocampista, difensore).
player(9, centrocampista, portiere).
player(10, difensore, portiere).
player(11, centrocampista, difensore).
player(12, difensore, attaccante).
player(13, portiere, difensore).
player(14, centrocampista, attaccante).
different_team(1, 2).
different_team(1, 3).
different_team(2, 3).
different_team(6, 7).

Output Clingo:
clingo version 5.7.1
Reading from ...ed-Reasoning-Project\Clingo\implASP.lp ...
Solving...
Answer: 1
assigned(1,2,difensore) assigned(2,1,attaccante) assigned(3,3,portiere) assigned(4,2,centrocampista) assigned(5,3,centrocampista) assigned(6,3,attaccante) assigned(7,2,difensore) assigned(8,1,centrocampista) assigned(9,1,portiere) assigned(10,2,difensore) assigned(11,3,difensore) assigned(12,1,difensore) assigned(13,2,portiere) assigned(14,2,attaccante) total_penalty(1)
Optimization: 1
Answer: 1
assigned(1,2,difensore) assigned(2,3,centrocampista) assigned(3,1,portiere) assigned(4,2,centrocampista) assigned(5,2,attaccante) assigned(6,2,portiere) assigned(7,3,difensore) assigned(8,2,centrocampista) assigned(9,3,portiere) assigned(10,1,difensore) assigned(11,1,centrocampista) assigned(12,1,attaccante) assigned(13,2,difensore) assigned(14,3,attaccante) total_penalty(1)
Optimization: 1
OPTIMUM FOUND

Models       : 2+
  Optimum    : yes
Optimization : 1
Calls        : 1
Time         : 0.181s (Solving: 0.17s 1st Model: 0.00s Unsat: 0.00s)
CPU Time     : 0.172s

Tempo di esecuzione Clingo: 0.20 secondi
